SATISFIABLE
{'Number': 1, 'More': 'yes'}
1
{'Total': 772.833, 'Solve': 760.053, 'Model': 760.049, 'Unsat': 0.0, 'CPU': 1421.094}
Generating timetable...

-- SETTIMANA 1 --
Venerdì
        Da 1 a 2        nessuno  presentazione_master
        Da 3 a 4        pozzato  fondamenti_ict
        Da 5 a 6        tomatis  gestione_qualita
        Da 7 a 8        valle    acquisizione_elaborazione_suono

Sabato
        Da 1 a 3        muzzetto         project_management
        Da 4 a 5        pozzato  fondamenti_ict

-- SETTIMANA 2 --
Venerdì
        Da 1 a 4        gena     accessibilita_usabilita
        Da 5 a 8        muzzetto         project_management

Sabato
        Da 1 a 2        muzzetto         project_management
        Da 3 a 4        pozzato  fondamenti_ict

-- SETTIMANA 3 --
Venerdì
        Da 1 a 2        muzzetto         project_management
        Da 3 a 6        pozzato  fondamenti_ict
        Da 7 a 8        mazzei   progettazione_basi_dati

Sabato
        Da 1 a 2        zanchetta        acquisizione_elaborazione_immagini_statiche
        Da 3 a 5        valle    acquisizione_elaborazione_suono

-- SETTIMANA 4 --
Venerdì
        Da 1 a 4        tomatis  gestione_qualita
        Da 6 a 8        zanchetta        acquisizione_elaborazione_immagini_statiche

Sabato
        Da 1 a 2        mazzei   progettazione_basi_dati
        Da 3 a 5        muzzetto         project_management

-- SETTIMANA 5 --
Venerdì
        Da 1 a 2        pozzato  fondamenti_ict
        Da 3 a 6        mazzei   progettazione_basi_dati
        Da 7 a 8        gena     accessibilita_usabilita

Sabato
        Da 1 a 3        zanchetta        acquisizione_elaborazione_immagini_statiche
        Da 4 a 5        pozzato  fondamenti_ict

-- SETTIMANA 6 --
Venerdì
        Da 1 a 2        nessuno  recupero_lezioni
        Da 3 a 5        gena     linguaggi_markup
        Da 6 a 8        valle    acquisizione_elaborazione_suono

Sabato
        Da 1 a 2        valle    acquisizione_elaborazione_suono
        Da 3 a 5        mazzei   progettazione_basi_dati

-- SETTIMANA 7 --
Lunedì
        Da 1 a 2        nessuno  recupero_lezioni
        Da 3 a 4        travostino       vincoli_giuridici
        Da 5 a 7        terranova        progettazione_grafica

Martedì
        Da 1 a 2        gena     accessibilita_usabilita
        Da 4 a 6        zanchetta        acquisizione_elaborazione_immagini_statiche
        Da 7 a 8        gena     linguaggi_markup

Mercoledì
        Da 1 a 2        gena     linguaggi_markup
        Da 3 a 6        tomatis  gestione_qualita
        Da 7 a 8        mazzei   progettazione_basi_dati

Giovedì
        Da 1 a 3        zanchetta        acquisizione_elaborazione_immagini_statiche
        Da 4 a 5        vargiu   elementi_fotografia
        Da 6 a 8        gena     linguaggi_markup

Venerdì
        Da 1 a 3        gena     accessibilita_usabilita
        Da 4 a 6        terranova        progettazione_grafica
        Da 7 a 8        travostino       vincoli_giuridici

Sabato
        Da 1 a 3        gena     accessibilita_usabilita
        Da 4 a 5        travostino       vincoli_giuridici

-- SETTIMANA 8 --
Venerdì
        Da 1 a 2        gena     linguaggi_markup
        Da 3 a 6        mazzei   progettazione_basi_dati
        Da 7 a 8        giordani         strumenti_metodi_interazione_social

Sabato
        Da 1 a 2        gena     linguaggi_markup
        Da 3 a 5        mazzei   progettazione_basi_dati

-- SETTIMANA 9 --
Venerdì
        Da 1 a 4        gabardi  comunicazione_pubblicitaria
        Da 5 a 8        gena     linguaggi_markup

Sabato
        Da 1 a 3        giordani         strumenti_metodi_interazione_social
        Da 4 a 5        gena     linguaggi_markup

-- SETTIMANA 10 --
Venerdì
        Da 1 a 2        gribaudo         grafica_3d
        Da 3 a 4        boiolo   risorse_digitali
        Da 5 a 8        giordani         strumenti_metodi_interazione_social

Sabato
        Da 1 a 3        giordani         strumenti_metodi_interazione_social
        Da 4 a 5        vargiu   elementi_fotografia

-- SETTIMANA 11 --
Venerdì
        Da 1 a 2        travostino       vincoli_giuridici
        Da 4 a 6        boiolo   risorse_digitali
        Da 7 a 8        gribaudo         grafica_3d

Sabato
        Da 1 a 3        vargiu   elementi_fotografia
        Da 4 a 5        giordani         strumenti_metodi_interazione_social

-- SETTIMANA 12 --
Venerdì
        Da 1 a 2        gabardi  comunicazione_pubblicitaria
        Da 3 a 4        santangelo       semiologia_multimedialita
        Da 5 a 7        muzzetto         marketing_digitale

Sabato
        Da 2 a 3        boiolo   risorse_digitali
        Da 4 a 5        travostino       vincoli_giuridici

-- SETTIMANA 13 --
Venerdì
        Da 1 a 4        santangelo       semiologia_multimedialita
        Da 5 a 8        terranova        progettazione_grafica

Sabato
        Da 1 a 3        vargiu   elementi_fotografia
        Da 4 a 5        gribaudo         grafica_3d

-- SETTIMANA 14 --
Venerdì
        Da 1 a 2        gribaudo         grafica_3d
        Da 4 a 6        muzzetto         marketing_digitale
        Da 7 a 8        micalizio        ambienti_sviluppo_linguaggi_clientside_web

Sabato
        Da 1 a 4        gabardi  comunicazione_pubblicitaria

-- SETTIMANA 15 --
Venerdì
        Da 1 a 4        gabardi  comunicazione_pubblicitaria
        Da 5 a 8        gribaudo         grafica_3d

Sabato
        Da 1 a 2        muzzetto         marketing_digitale
        Da 3 a 5        ghidelli         acquisizione_elaborazione_immagini_digitali

-- SETTIMANA 16 --
Lunedì
        Da 1 a 4        gribaudo         grafica_3d
        Da 5 a 6        muzzetto         marketing_digitale
        Da 7 a 8        taddeo   crossmedia

Martedì
        Da 1 a 2        gribaudo         grafica_3d
        Da 3 a 4        taddeo   crossmedia
        Da 5 a 8        ghidelli         acquisizione_elaborazione_immagini_digitali

Mercoledì
        Da 1 a 4        taddeo   crossmedia
        Da 5 a 7        boiolo   risorse_digitali

Giovedì
        Da 2 a 4        taddeo   crossmedia
        Da 5 a 8        ghidelli         acquisizione_elaborazione_immagini_digitali

Venerdì
        Da 1 a 2        santangelo       semiologia_multimedialita
        Da 3 a 5        micalizio        ambienti_sviluppo_linguaggi_clientside_web
        Da 6 a 8        ghidelli         acquisizione_elaborazione_immagini_digitali

Sabato
        Da 1 a 2        gribaudo         grafica_3d
        Da 3 a 4        santangelo       semiologia_multimedialita

-- SETTIMANA 17 --
Venerdì
        Da 1 a 4        taddeo   crossmedia
        Da 5 a 6        micalizio        ambienti_sviluppo_linguaggi_clientside_web
        Da 7 a 8        suppini  introduzione_social_media

Sabato
        Da 1 a 3        taddeo   crossmedia
        Da 4 a 5        suppini  introduzione_social_media

-- SETTIMANA 18 --
Venerdì
        Da 1 a 2        damiano  tecnologie_server_side
        Da 3 a 4        suppini  introduzione_social_media
        Da 5 a 8        ghidelli         acquisizione_elaborazione_immagini_digitali

Sabato
        Da 1 a 3        micalizio        ambienti_sviluppo_linguaggi_clientside_web
        Da 4 a 5        damiano  tecnologie_server_side

-- SETTIMANA 19 --
Venerdì
        Da 1 a 2        suppini  introduzione_social_media
        Da 3 a 6        micalizio        ambienti_sviluppo_linguaggi_clientside_web
        Da 7 a 8        ghidelli         acquisizione_elaborazione_immagini_digitali

Sabato
        Da 1 a 2        micalizio        ambienti_sviluppo_linguaggi_clientside_web
        Da 3 a 5        damiano  tecnologie_server_side

-- SETTIMANA 20 --
Venerdì
        Da 1 a 4        micalizio        ambienti_sviluppo_linguaggi_clientside_web
        Da 5 a 6        taddeo   crossmedia
        Da 7 a 8        damiano  tecnologie_server_side

Sabato
        Da 1 a 3        damiano  tecnologie_server_side
        Da 4 a 5        lombardo         gestione_risorse_umane

-- SETTIMANA 21 --
Venerdì
        Da 1 a 4        pozzato  progettazione_mobile_1
        Da 5 a 8        zanchetta        tecniche_strumenti_marketing

Sabato
        Da 1 a 2        pozzato  progettazione_mobile_1
        Da 3 a 5        damiano  tecnologie_server_side

-- SETTIMANA 22 --
Venerdì
        Da 1 a 4        pozzato  progettazione_mobile_1
        Da 5 a 8        suppini  introduzione_social_media

Sabato
        Da 1 a 3        schifanella      progettazione_mobile_2
        Da 4 a 5        lombardo         gestione_risorse_umane

-- SETTIMANA 23 --
Venerdì
        Da 1 a 2        schifanella      progettazione_mobile_2
        Da 3 a 6        lombardo         gestione_risorse_umane
        Da 7 a 8        suppini  introduzione_social_media

Sabato
        Da 1 a 3        schifanella      progettazione_mobile_2
        Da 4 a 5        lombardo         gestione_risorse_umane

-- SETTIMANA 24 --
Venerdì
        Da 1 a 2        schifanella      progettazione_mobile_2
        Da 3 a 5        damiano  tecnologie_server_side
        Da 6 a 8        zanchetta        tecniche_strumenti_marketing

Sabato
        Da 1 a 3        zanchetta        tecniche_strumenti_marketing
        Da 4 a 5        damiano  tecnologie_server_side
